NAME          ClpDefau
ROWS
 N  OBJROW
 L  R_244_0
 L  R_244_1
 L  R_244_2
 L  R_244_3
 L  R_244_4
 L  R_244_5
 L  R_244_6
 L  R_244_7
COLUMNS
    x_0       OBJROW     -8.           R_244_1   93.         
    x_0       R_244_3   48.            R_244_4   57.         
    x_0       R_244_5   5.             R_244_7   41.         
    x_1       OBJROW     -12.          R_244_1   68.         
    x_1       R_244_2   23.            R_244_3   4.          
    x_1       R_244_4   23.            R_244_5   66.         
    x_1       R_244_6   66.            R_244_7   24.         
    x_2       OBJROW     -11.          R_244_1   54.         
    x_2       R_244_2   98.            R_244_3   76.         
    x_2       R_244_4   58.            R_244_5   97.         
    x_2       R_244_6   95.            R_244_7   68.         
    x_3       OBJROW     -47.          R_244_0   36.         
    x_3       R_244_2   46.            R_244_3   59.         
    x_3       R_244_5   73.            R_244_6   72.         
    x_3       R_244_7   63.         
    x_4       OBJROW     -22.          R_244_0   42.         
    x_4       R_244_4   99.            R_244_6   91.         
    x_5       OBJROW     -95.          R_244_0   65.         
    x_5       R_244_1   76.            R_244_2   94.         
    x_5       R_244_3   66.            R_244_4   88.         
    x_5       R_244_5   10.            R_244_6   44.         
    x_5       R_244_7   25.         
    x_6       OBJROW     -86.          R_244_1   74.         
    x_6       R_244_2   35.            R_244_3   88.         
    x_6       R_244_5   67.            R_244_6   35.         
    x_6       R_244_7   27.         
    x_7       OBJROW     -40.          R_244_1   92.         
    x_7       R_244_2   8.             R_244_3   23.         
    x_7       R_244_4   4.             R_244_5   9.          
    x_7       R_244_6   94.         
    x_8       OBJROW     -33.          R_244_0   17.         
    x_8       R_244_2   24.            R_244_3   1.          
    x_8       R_244_4   6.             R_244_5   32.         
    x_8       R_244_6   5.             R_244_7   79.         
    x_9       OBJROW     -78.          R_244_0   96.         
    x_9       R_244_1   44.            R_244_2   40.         
    x_9       R_244_3   99.            R_244_4   6.          
    x_9       R_244_6   80.            R_244_7   61.         
    x_10      OBJROW     -28.          R_244_1   88.         
    x_10      R_244_2   14.            R_244_3   17.         
    x_10      R_244_4   100.           R_244_5   66.         
    x_10      R_244_6   44.            R_244_7   78.         
    x_11      OBJROW     -78.          R_244_1   90.         
    x_11      R_244_2   18.            R_244_3   33.         
    x_11      R_244_4   21.            R_244_5   59.         
    x_11      R_244_6   66.         
    x_12      OBJROW     -5.           R_244_0   5.          
    x_12      R_244_2   57.            R_244_3   11.         
    x_12      R_244_4   80.            R_244_5   80.         
    x_12      R_244_6   33.            R_244_7   36.         
    x_13      OBJROW     -75.          R_244_0   1.          
    x_13      R_244_1   50.            R_244_2   15.         
    x_13      R_244_3   12.            R_244_4   13.         
    x_13      R_244_5   97.            R_244_6   28.         
    x_13      R_244_7   86.         
    x_14      OBJROW     -88.          R_244_0   40.         
    x_14      R_244_1   49.            R_244_2   98.         
    x_14      R_244_4   56.            R_244_5   3.          
    x_14      R_244_6   7.          
    x_15      OBJROW     -21.          R_244_1   13.         
    x_15      R_244_2   62.            R_244_3   67.         
    x_15      R_244_5   47.            R_244_6   48.         
    x_15      R_244_7   88.         
RHS
    RHS       R_244_0   745.           R_244_1   665.        
    RHS       R_244_2   666.           R_244_3   718.        
    RHS       R_244_4   690.           R_244_5   838.        
    RHS       R_244_6   812.           R_244_7   851.        
BOUNDS
 UI BOUND     x_0       100.        
 UI BOUND     x_1       100.        
 UI BOUND     x_2       100.        
 UI BOUND     x_3       100.        
 UI BOUND     x_4       100.        
 UI BOUND     x_5       100.        
 UI BOUND     x_6       100.        
 UI BOUND     x_7       100.        
 UI BOUND     x_8       100.        
 UI BOUND     x_9       100.        
 UI BOUND     x_10      100.        
 UI BOUND     x_11      100.        
 UI BOUND     x_12      100.        
 UI BOUND     x_13      100.        
 UI BOUND     x_14      100.        
 UI BOUND     x_15      100.        
ENDATA
